Version identifier: 22.1.1.0 | 2022-11-28 | 9160aff4d
CPXPARAM_Threads                                 8
CPXPARAM_Emphasis_MIP                            5
CPXPARAM_TimeLimit                               3600
CPXPARAM_MIP_Tolerances_MIPGap                   0.029999999999999999
Tried aggregator 3 times.
MIP Presolve eliminated 63 rows and 31 columns.
MIP Presolve modified 3 coefficients.
Aggregator did 25 substitutions.
Reduced MIP has 55 rows, 39 columns, and 175 nonzeros.
Reduced MIP has 27 binaries, 12 generals, 0 SOSs, and 0 indicators.
Presolve time = 0.01 sec. (0.36 ticks)
Found incumbent of value 150.000000 after 0.04 sec. (0.69 ticks)
Probing time = 0.00 sec. (0.06 ticks)
Tried aggregator 1 time.
Detecting symmetries...
Reduced MIP has 55 rows, 39 columns, and 175 nonzeros.
Reduced MIP has 27 binaries, 12 generals, 0 SOSs, and 0 indicators.
Presolve time = 0.00 sec. (0.10 ticks)
Probing time = 0.00 sec. (0.06 ticks)
Clique table members: 14.
MIP emphasis: heuristic.
MIP search method: dynamic search.
Parallel mode: deterministic, using up to 8 threads.
Root relaxation solution time = 0.00 sec. (0.12 ticks)

        Nodes                                         Cuts/
   Node  Left     Objective  IInf  Best Integer    Best Bound    ItCnt     Gap

*     0+    0                          150.0000       60.0000            60.00%
*     0     0      integral     0      130.0000      130.0000       17    0.00%
Elapsed time = 0.05 sec. (1.12 ticks, tree = 0.00 MB, solutions = 2)
Version identifier: 22.1.1.0 | 2022-11-28 | 9160aff4d
CPXPARAM_Threads                                 8
CPXPARAM_Emphasis_MIP                            5
CPXPARAM_TimeLimit                               3600
CPXPARAM_MIP_Tolerances_MIPGap                   0.029999999999999999
Tried aggregator 3 times.
MIP Presolve eliminated 84 rows and 46 columns.
MIP Presolve modified 6 coefficients.
Aggregator did 28 substitutions.
Reduced MIP has 68 rows, 47 columns, and 208 nonzeros.
Reduced MIP has 33 binaries, 14 generals, 0 SOSs, and 0 indicators.
Presolve time = 0.00 sec. (0.44 ticks)
Found incumbent of value 250.000000 after 0.00 sec. (0.79 ticks)
Probing time = 0.00 sec. (0.08 ticks)
Tried aggregator 1 time.
Detecting symmetries...
Reduced MIP has 68 rows, 47 columns, and 208 nonzeros.
Reduced MIP has 33 binaries, 14 generals, 0 SOSs, and 0 indicators.
Presolve time = 0.00 sec. (0.13 ticks)
Probing time = 0.00 sec. (0.09 ticks)
Clique table members: 48.
MIP emphasis: heuristic.
MIP search method: dynamic search.
Parallel mode: deterministic, using up to 8 threads.
Root relaxation solution time = 0.00 sec. (0.14 ticks)

        Nodes                                         Cuts/
   Node  Left     Objective  IInf  Best Integer    Best Bound    ItCnt     Gap

*     0+    0                          250.0000       60.0000            76.00%
*     0     0      integral     0      130.0000      130.0000       21    0.00%
Elapsed time = 0.01 sec. (1.34 ticks, tree = 0.00 MB, solutions = 2)
Version identifier: 22.1.1.0 | 2022-11-28 | 9160aff4d
CPXPARAM_Threads                                 8
CPXPARAM_Emphasis_MIP                            5
CPXPARAM_TimeLimit                               3600
CPXPARAM_MIP_Tolerances_MIPGap                   0.029999999999999999
Tried aggregator 3 times.
MIP Presolve eliminated 199 rows and 110 columns.
MIP Presolve modified 6 coefficients.
Aggregator did 44 substitutions.
Reduced MIP has 106 rows, 70 columns, and 322 nonzeros.
Reduced MIP has 50 binaries, 20 generals, 0 SOSs, and 0 indicators.
Presolve time = 0.00 sec. (0.72 ticks)
Found incumbent of value 610.000000 after 0.01 sec. (1.36 ticks)
Probing time = 0.00 sec. (0.19 ticks)
Tried aggregator 1 time.
Detecting symmetries...
Reduced MIP has 106 rows, 70 columns, and 322 nonzeros.
Reduced MIP has 50 binaries, 20 generals, 0 SOSs, and 0 indicators.
Presolve time = 0.00 sec. (0.20 ticks)
Probing time = 0.00 sec. (0.20 ticks)
Clique table members: 128.
MIP emphasis: heuristic.
MIP search method: dynamic search.
Parallel mode: deterministic, using up to 8 threads.
Root relaxation solution time = 0.00 sec. (0.24 ticks)

        Nodes                                         Cuts/
   Node  Left     Objective  IInf  Best Integer    Best Bound    ItCnt     Gap

*     0+    0                          610.0000       60.0000            90.16%
*     0     0      integral     0      150.0000      150.0000       37    0.00%
Elapsed time = 0.01 sec. (2.38 ticks, tree = 0.00 MB, solutions = 2)
Version identifier: 22.1.1.0 | 2022-11-28 | 9160aff4d
CPXPARAM_Threads                                 8
CPXPARAM_Emphasis_MIP                            5
CPXPARAM_TimeLimit                               3600
CPXPARAM_MIP_Tolerances_MIPGap                   0.029999999999999999
Tried aggregator 3 times.
MIP Presolve eliminated 204 rows and 113 columns.
MIP Presolve modified 6 coefficients.
Aggregator did 46 substitutions.
Reduced MIP has 128 rows, 83 columns, and 388 nonzeros.
Reduced MIP has 61 binaries, 22 generals, 0 SOSs, and 0 indicators.
Presolve time = 0.01 sec. (0.80 ticks)
Found incumbent of value 500.000000 after 0.01 sec. (1.57 ticks)
Probing time = 0.00 sec. (0.29 ticks)
Tried aggregator 1 time.
Detecting symmetries...
MIP Presolve eliminated 3 rows and 3 columns.
Reduced MIP has 125 rows, 80 columns, and 379 nonzeros.
Reduced MIP has 58 binaries, 22 generals, 0 SOSs, and 0 indicators.
Presolve time = 0.00 sec. (0.35 ticks)
Probing time = 0.00 sec. (0.27 ticks)
Clique table members: 202.
MIP emphasis: heuristic.
MIP search method: dynamic search.
Parallel mode: deterministic, using up to 8 threads.
Root relaxation solution time = 0.00 sec. (0.32 ticks)

        Nodes                                         Cuts/
   Node  Left     Objective  IInf  Best Integer    Best Bound    ItCnt     Gap

*     0+    0                          500.0000       60.0000            88.00%
*     0     0      integral     0      150.0000      150.0000       51    0.00%
Elapsed time = 0.02 sec. (3.05 ticks, tree = 0.00 MB, solutions = 2)
Version identifier: 22.1.1.0 | 2022-11-28 | 9160aff4d
CPXPARAM_Threads                                 8
CPXPARAM_Emphasis_MIP                            5
CPXPARAM_TimeLimit                               3600
CPXPARAM_MIP_Tolerances_MIPGap                   0.029999999999999999
Tried aggregator 3 times.
MIP Presolve eliminated 211 rows and 116 columns.
MIP Presolve modified 6 coefficients.
Aggregator did 47 substitutions.
Reduced MIP has 140 rows, 93 columns, and 430 nonzeros.
Reduced MIP has 70 binaries, 23 generals, 0 SOSs, and 0 indicators.
Presolve time = 0.01 sec. (0.84 ticks)
Found incumbent of value 490.000000 after 0.01 sec. (1.64 ticks)
Probing time = 0.00 sec. (0.36 ticks)
Tried aggregator 1 time.
Detecting symmetries...
MIP Presolve eliminated 3 rows and 3 columns.
Reduced MIP has 137 rows, 90 columns, and 421 nonzeros.
Reduced MIP has 67 binaries, 23 generals, 0 SOSs, and 0 indicators.
Presolve time = 0.00 sec. (0.39 ticks)
Probing time = 0.00 sec. (0.34 ticks)
Clique table members: 265.
MIP emphasis: heuristic.
MIP search method: dynamic search.
Parallel mode: deterministic, using up to 8 threads.
Root relaxation solution time = 0.00 sec. (0.31 ticks)

        Nodes                                         Cuts/
   Node  Left     Objective  IInf  Best Integer    Best Bound    ItCnt     Gap

*     0+    0                          490.0000       60.0000            87.76%
*     0     0      integral     0      150.0000      150.0000       22    0.00%
Elapsed time = 0.02 sec. (3.33 ticks, tree = 0.00 MB, solutions = 2)
Version identifier: 22.1.1.0 | 2022-11-28 | 9160aff4d
CPXPARAM_Threads                                 8
CPXPARAM_Emphasis_MIP                            5
CPXPARAM_TimeLimit                               3600
CPXPARAM_MIP_Tolerances_MIPGap                   0.029999999999999999
Tried aggregator 3 times.
MIP Presolve eliminated 343 rows and 194 columns.
MIP Presolve modified 3 coefficients.
Aggregator did 61 substitutions.
Reduced MIP has 236 rows, 154 columns, and 728 nonzeros.
Reduced MIP has 116 binaries, 38 generals, 0 SOSs, and 0 indicators.
Presolve time = 0.00 sec. (1.26 ticks)
Probing time = 0.00 sec. (0.67 ticks)
Tried aggregator 1 time.
Detecting symmetries...
MIP Presolve eliminated 3 rows and 3 columns.
Reduced MIP has 233 rows, 151 columns, and 719 nonzeros.
Reduced MIP has 113 binaries, 38 generals, 0 SOSs, and 0 indicators.
Presolve time = 0.00 sec. (0.67 ticks)
Probing time = 0.00 sec. (0.66 ticks)
Clique table members: 472.
MIP emphasis: heuristic.
MIP search method: dynamic search.
Parallel mode: deterministic, using up to 8 threads.
Root relaxation solution time = 0.01 sec. (0.77 ticks)

        Nodes                                         Cuts/
   Node  Left     Objective  IInf  Best Integer    Best Bound    ItCnt     Gap

*     0+    0                          510.0000       60.0000            88.24%
*     0     0      integral     0      250.0000      250.0000      100    0.00%
Elapsed time = 0.03 sec. (6.08 ticks, tree = 0.00 MB, solutions = 2)

Root node processing (before b&c):
  Real time             =    0.02 sec. (3.34 ticks)
Parallel b&c, 8 threads:
  Real time             =    0.00 sec. (0.00 ticks)
  Sync time (average)   =    0.00 sec.
  Wait time (average)   =    0.00 sec.
                          ------------
Total (root+branch&cut) =    0.02 sec. (3.34 ticks)

Root node processing (before b&c):
  Real time             =    0.02 sec. (3.06 ticks)
Parallel b&c, 8 threads:
  Real time             =    0.00 sec. (0.00 ticks)
  Sync time (average)   =    0.00 sec.
  Wait time (average)   =    0.00 sec.
                          ------------
Total (root+branch&cut) =    0.02 sec. (3.06 ticks)

Root node processing (before b&c):
  Real time             =    0.01 sec. (2.39 ticks)
Parallel b&c, 8 threads:
  Real time             =    0.00 sec. (0.00 ticks)
  Sync time (average)   =    0.00 sec.
  Wait time (average)   =    0.00 sec.
                          ------------
Total (root+branch&cut) =    0.01 sec. (2.39 ticks)

Root node processing (before b&c):
  Real time             =    0.01 sec. (1.34 ticks)
Parallel b&c, 8 threads:
  Real time             =    0.00 sec. (0.00 ticks)
  Sync time (average)   =    0.00 sec.
  Wait time (average)   =    0.00 sec.
                          ------------
Total (root+branch&cut) =    0.01 sec. (1.34 ticks)
Version identifier: 22.1.1.0 | 2022-11-28 | 9160aff4d
CPXPARAM_Threads                                 8
CPXPARAM_Emphasis_MIP                            5
CPXPARAM_TimeLimit                               3600
CPXPARAM_MIP_Tolerances_MIPGap                   0.029999999999999999
Tried aggregator 3 times.
MIP Presolve eliminated 402 rows and 233 columns.
MIP Presolve modified 3 coefficients.
Aggregator did 59 substitutions.
Reduced MIP has 284 rows, 191 columns, and 886 nonzeros.
Reduced MIP has 144 binaries, 47 generals, 0 SOSs, and 0 indicators.
Presolve time = 0.00 sec. (1.50 ticks)
Probing time = 0.00 sec. (1.02 ticks)
Tried aggregator 1 time.
Detecting symmetries...
MIP Presolve eliminated 3 rows and 3 columns.
Reduced MIP has 281 rows, 188 columns, and 877 nonzeros.
Reduced MIP has 141 binaries, 47 generals, 0 SOSs, and 0 indicators.
Presolve time = 0.00 sec. (0.82 ticks)
Probing time = 0.00 sec. (1.00 ticks)
Clique table members: 633.
MIP emphasis: heuristic.
MIP search method: dynamic search.
Parallel mode: deterministic, using up to 8 threads.
Root relaxation solution time = 0.01 sec. (1.11 ticks)

        Nodes                                         Cuts/
   Node  Left     Objective  IInf  Best Integer    Best Bound    ItCnt     Gap

*     0+    0                          610.0000       60.0000            90.16%
*     0     0      integral     0      250.0000      250.0000      131    0.00%
Elapsed time = 0.02 sec. (7.64 ticks, tree = 0.00 MB, solutions = 2)
Version identifier: 22.1.1.0 | 2022-11-28 | 9160aff4d
CPXPARAM_Threads                                 8
CPXPARAM_Emphasis_MIP                            5
CPXPARAM_TimeLimit                               3600
CPXPARAM_MIP_Tolerances_MIPGap                   0.029999999999999999
Tried aggregator 3 times.
MIP Presolve eliminated 620 rows and 362 columns.
MIP Presolve modified 3 coefficients.
Aggregator did 83 substitutions.
Reduced MIP has 384 rows, 254 columns, and 1222 nonzeros.
Reduced MIP has 200 binaries, 54 generals, 0 SOSs, and 0 indicators.
Presolve time = 0.01 sec. (2.21 ticks)
Probing time = 0.00 sec. (1.86 ticks)
Tried aggregator 1 time.
Detecting symmetries...
MIP Presolve eliminated 4 rows and 4 columns.
Reduced MIP has 380 rows, 250 columns, and 1210 nonzeros.
Reduced MIP has 196 binaries, 54 generals, 0 SOSs, and 0 indicators.
Presolve time = 0.00 sec. (1.15 ticks)
Probing time = 0.00 sec. (1.83 ticks)
Clique table members: 834.
MIP emphasis: heuristic.
MIP search method: dynamic search.
Parallel mode: deterministic, using up to 8 threads.
Root relaxation solution time = 0.02 sec. (1.52 ticks)

        Nodes                                         Cuts/
   Node  Left     Objective  IInf  Best Integer    Best Bound    ItCnt     Gap

*     0+    0                          620.0000       60.0000            90.32%
*     0     0      integral     0      270.0000      270.0000      163    0.00%
Elapsed time = 0.04 sec. (11.85 ticks, tree = 0.00 MB, solutions = 2)

Root node processing (before b&c):
  Real time             =    0.02 sec. (7.66 ticks)
Parallel b&c, 8 threads:
  Real time             =    0.00 sec. (0.00 ticks)
  Sync time (average)   =    0.00 sec.
  Wait time (average)   =    0.00 sec.
                          ------------
Total (root+branch&cut) =    0.02 sec. (7.66 ticks)

Root node processing (before b&c):
  Real time             =    0.03 sec. (6.09 ticks)
Parallel b&c, 8 threads:
  Real time             =    0.00 sec. (0.00 ticks)
  Sync time (average)   =    0.00 sec.
  Wait time (average)   =    0.00 sec.
                          ------------
Total (root+branch&cut) =    0.03 sec. (6.09 ticks)

Root node processing (before b&c):
  Real time             =    0.04 sec. (11.87 ticks)
Parallel b&c, 8 threads:
  Real time             =    0.00 sec. (0.00 ticks)
  Sync time (average)   =    0.00 sec.
  Wait time (average)   =    0.00 sec.
                          ------------
Total (root+branch&cut) =    0.04 sec. (11.87 ticks)

Root node processing (before b&c):
  Real time             =    0.05 sec. (1.13 ticks)
Parallel b&c, 8 threads:
  Real time             =    0.00 sec. (0.00 ticks)
  Sync time (average)   =    0.00 sec.
  Wait time (average)   =    0.00 sec.
                          ------------
Total (root+branch&cut) =    0.05 sec. (1.13 ticks)
Version identifier: 22.1.1.0 | 2022-11-28 | 9160aff4d
CPXPARAM_Threads                                 8
CPXPARAM_Emphasis_MIP                            5
CPXPARAM_TimeLimit                               3600
CPXPARAM_MIP_Tolerances_MIPGap                   0.029999999999999999
Tried aggregator 3 times.
MIP Presolve eliminated 63 rows and 31 columns.
MIP Presolve modified 3 coefficients.
Aggregator did 25 substitutions.
Reduced MIP has 55 rows, 39 columns, and 175 nonzeros.
Reduced MIP has 27 binaries, 12 generals, 0 SOSs, and 0 indicators.
Presolve time = 0.01 sec. (0.36 ticks)
Found incumbent of value 150.000000 after 0.03 sec. (0.69 ticks)
Probing time = 0.00 sec. (0.06 ticks)
Tried aggregator 1 time.
Detecting symmetries...
Reduced MIP has 55 rows, 39 columns, and 175 nonzeros.
Reduced MIP has 27 binaries, 12 generals, 0 SOSs, and 0 indicators.
Presolve time = 0.00 sec. (0.10 ticks)
Probing time = 0.00 sec. (0.06 ticks)
Clique table members: 14.
MIP emphasis: heuristic.
MIP search method: dynamic search.
Parallel mode: deterministic, using up to 8 threads.
Root relaxation solution time = 0.00 sec. (0.12 ticks)

        Nodes                                         Cuts/
   Node  Left     Objective  IInf  Best Integer    Best Bound    ItCnt     Gap

*     0+    0                          150.0000       60.0000            60.00%
*     0     0      integral     0      130.0000      130.0000       17    0.00%
Elapsed time = 0.04 sec. (1.12 ticks, tree = 0.00 MB, solutions = 2)
Version identifier: 22.1.1.0 | 2022-11-28 | 9160aff4d
CPXPARAM_Threads                                 8
CPXPARAM_Emphasis_MIP                            5
CPXPARAM_TimeLimit                               3600
CPXPARAM_MIP_Tolerances_MIPGap                   0.029999999999999999
Tried aggregator 3 times.
MIP Presolve eliminated 84 rows and 46 columns.
MIP Presolve modified 6 coefficients.
Aggregator did 28 substitutions.
Reduced MIP has 68 rows, 47 columns, and 208 nonzeros.
Reduced MIP has 33 binaries, 14 generals, 0 SOSs, and 0 indicators.
Presolve time = 0.00 sec. (0.44 ticks)
Found incumbent of value 250.000000 after 0.00 sec. (0.79 ticks)
Probing time = 0.00 sec. (0.08 ticks)
Tried aggregator 1 time.
Detecting symmetries...
Reduced MIP has 68 rows, 47 columns, and 208 nonzeros.
Reduced MIP has 33 binaries, 14 generals, 0 SOSs, and 0 indicators.
Presolve time = 0.00 sec. (0.13 ticks)
Probing time = 0.00 sec. (0.09 ticks)
Clique table members: 48.
MIP emphasis: heuristic.
MIP search method: dynamic search.
Parallel mode: deterministic, using up to 8 threads.
Root relaxation solution time = 0.00 sec. (0.14 ticks)

        Nodes                                         Cuts/
   Node  Left     Objective  IInf  Best Integer    Best Bound    ItCnt     Gap

*     0+    0                          250.0000       60.0000            76.00%
*     0     0      integral     0      130.0000      130.0000       21    0.00%
Elapsed time = 0.01 sec. (1.34 ticks, tree = 0.00 MB, solutions = 2)
Version identifier: 22.1.1.0 | 2022-11-28 | 9160aff4d
CPXPARAM_Threads                                 8
CPXPARAM_Emphasis_MIP                            5
CPXPARAM_TimeLimit                               3600
CPXPARAM_MIP_Tolerances_MIPGap                   0.029999999999999999
Tried aggregator 3 times.
MIP Presolve eliminated 199 rows and 110 columns.
MIP Presolve modified 6 coefficients.
Aggregator did 44 substitutions.
Reduced MIP has 106 rows, 70 columns, and 322 nonzeros.
Reduced MIP has 50 binaries, 20 generals, 0 SOSs, and 0 indicators.
Presolve time = 0.00 sec. (0.72 ticks)
Found incumbent of value 610.000000 after 0.00 sec. (1.36 ticks)
Probing time = 0.00 sec. (0.19 ticks)
Tried aggregator 1 time.
Detecting symmetries...
Reduced MIP has 106 rows, 70 columns, and 322 nonzeros.
Reduced MIP has 50 binaries, 20 generals, 0 SOSs, and 0 indicators.
Presolve time = 0.00 sec. (0.20 ticks)
Probing time = 0.00 sec. (0.20 ticks)
Clique table members: 128.
MIP emphasis: heuristic.
MIP search method: dynamic search.
Parallel mode: deterministic, using up to 8 threads.
Root relaxation solution time = 0.00 sec. (0.24 ticks)

        Nodes                                         Cuts/
   Node  Left     Objective  IInf  Best Integer    Best Bound    ItCnt     Gap

*     0+    0                          610.0000       60.0000            90.16%
*     0     0      integral     0      150.0000      150.0000       37    0.00%
Elapsed time = 0.01 sec. (2.38 ticks, tree = 0.00 MB, solutions = 2)
Version identifier: 22.1.1.0 | 2022-11-28 | 9160aff4d
CPXPARAM_Threads                                 8
CPXPARAM_Emphasis_MIP                            5
CPXPARAM_TimeLimit                               3600
CPXPARAM_MIP_Tolerances_MIPGap                   0.029999999999999999
Tried aggregator 3 times.
MIP Presolve eliminated 204 rows and 113 columns.
MIP Presolve modified 6 coefficients.
Aggregator did 46 substitutions.
Reduced MIP has 128 rows, 83 columns, and 388 nonzeros.
Reduced MIP has 61 binaries, 22 generals, 0 SOSs, and 0 indicators.
Presolve time = 0.00 sec. (0.80 ticks)
Found incumbent of value 500.000000 after 0.00 sec. (1.57 ticks)
Probing time = 0.00 sec. (0.29 ticks)
Tried aggregator 1 time.
Detecting symmetries...
MIP Presolve eliminated 3 rows and 3 columns.
Reduced MIP has 125 rows, 80 columns, and 379 nonzeros.
Reduced MIP has 58 binaries, 22 generals, 0 SOSs, and 0 indicators.
Presolve time = 0.00 sec. (0.35 ticks)
Probing time = 0.00 sec. (0.27 ticks)
Clique table members: 202.
MIP emphasis: heuristic.
MIP search method: dynamic search.
Parallel mode: deterministic, using up to 8 threads.
Root relaxation solution time = 0.00 sec. (0.32 ticks)

        Nodes                                         Cuts/
   Node  Left     Objective  IInf  Best Integer    Best Bound    ItCnt     Gap

*     0+    0                          500.0000       60.0000            88.00%
*     0     0      integral     0      150.0000      150.0000       51    0.00%
Elapsed time = 0.01 sec. (3.05 ticks, tree = 0.00 MB, solutions = 2)
Version identifier: 22.1.1.0 | 2022-11-28 | 9160aff4d
CPXPARAM_Threads                                 8
CPXPARAM_Emphasis_MIP                            5
CPXPARAM_TimeLimit                               3600
CPXPARAM_MIP_Tolerances_MIPGap                   0.029999999999999999
Tried aggregator 3 times.
MIP Presolve eliminated 211 rows and 116 columns.
MIP Presolve modified 6 coefficients.
Aggregator did 47 substitutions.
Reduced MIP has 140 rows, 93 columns, and 430 nonzeros.
Reduced MIP has 70 binaries, 23 generals, 0 SOSs, and 0 indicators.
Presolve time = 0.00 sec. (0.84 ticks)
Found incumbent of value 490.000000 after 0.00 sec. (1.64 ticks)
Probing time = 0.00 sec. (0.36 ticks)
Tried aggregator 1 time.
Detecting symmetries...
MIP Presolve eliminated 3 rows and 3 columns.
Reduced MIP has 137 rows, 90 columns, and 421 nonzeros.
Reduced MIP has 67 binaries, 23 generals, 0 SOSs, and 0 indicators.
Presolve time = 0.00 sec. (0.39 ticks)
Probing time = 0.00 sec. (0.34 ticks)
Clique table members: 265.
MIP emphasis: heuristic.
MIP search method: dynamic search.
Parallel mode: deterministic, using up to 8 threads.
Root relaxation solution time = 0.00 sec. (0.31 ticks)

        Nodes                                         Cuts/
   Node  Left     Objective  IInf  Best Integer    Best Bound    ItCnt     Gap

*     0+    0                          490.0000       60.0000            87.76%
*     0     0      integral     0      150.0000      150.0000       22    0.00%
Elapsed time = 0.01 sec. (3.33 ticks, tree = 0.00 MB, solutions = 2)
Version identifier: 22.1.1.0 | 2022-11-28 | 9160aff4d
CPXPARAM_Threads                                 8
CPXPARAM_Emphasis_MIP                            5
CPXPARAM_TimeLimit                               3600
CPXPARAM_MIP_Tolerances_MIPGap                   0.029999999999999999
Tried aggregator 3 times.
MIP Presolve eliminated 343 rows and 194 columns.
MIP Presolve modified 3 coefficients.
Aggregator did 61 substitutions.
Reduced MIP has 236 rows, 154 columns, and 728 nonzeros.
Reduced MIP has 116 binaries, 38 generals, 0 SOSs, and 0 indicators.
Presolve time = 0.00 sec. (1.26 ticks)
Probing time = 0.00 sec. (0.67 ticks)
Tried aggregator 1 time.
Detecting symmetries...
MIP Presolve eliminated 3 rows and 3 columns.
Reduced MIP has 233 rows, 151 columns, and 719 nonzeros.
Reduced MIP has 113 binaries, 38 generals, 0 SOSs, and 0 indicators.
Presolve time = 0.00 sec. (0.67 ticks)
Probing time = 0.00 sec. (0.66 ticks)
Clique table members: 472.
MIP emphasis: heuristic.
MIP search method: dynamic search.
Parallel mode: deterministic, using up to 8 threads.
Root relaxation solution time = 0.01 sec. (0.77 ticks)

        Nodes                                         Cuts/
   Node  Left     Objective  IInf  Best Integer    Best Bound    ItCnt     Gap

*     0+    0                          510.0000       60.0000            88.24%
*     0     0      integral     0      250.0000      250.0000      100    0.00%
Elapsed time = 0.02 sec. (6.08 ticks, tree = 0.00 MB, solutions = 2)

Root node processing (before b&c):
  Real time             =    0.01 sec. (3.34 ticks)
Parallel b&c, 8 threads:
  Real time             =    0.00 sec. (0.00 ticks)
  Sync time (average)   =    0.00 sec.
  Wait time (average)   =    0.00 sec.
                          ------------
Total (root+branch&cut) =    0.01 sec. (3.34 ticks)

Root node processing (before b&c):
  Real time             =    0.01 sec. (3.06 ticks)
Parallel b&c, 8 threads:
  Real time             =    0.00 sec. (0.00 ticks)
  Sync time (average)   =    0.00 sec.
  Wait time (average)   =    0.00 sec.
                          ------------
Total (root+branch&cut) =    0.01 sec. (3.06 ticks)

Root node processing (before b&c):
  Real time             =    0.01 sec. (2.39 ticks)
Parallel b&c, 8 threads:
  Real time             =    0.00 sec. (0.00 ticks)
  Sync time (average)   =    0.00 sec.
  Wait time (average)   =    0.00 sec.
                          ------------
Total (root+branch&cut) =    0.01 sec. (2.39 ticks)
Version identifier: 22.1.1.0 | 2022-11-28 | 9160aff4d
CPXPARAM_Threads                                 8
CPXPARAM_Emphasis_MIP                            5
CPXPARAM_TimeLimit                               3600
CPXPARAM_MIP_Tolerances_MIPGap                   0.029999999999999999
Tried aggregator 3 times.
MIP Presolve eliminated 402 rows and 233 columns.
MIP Presolve modified 3 coefficients.
Aggregator did 59 substitutions.
Reduced MIP has 284 rows, 191 columns, and 886 nonzeros.
Reduced MIP has 144 binaries, 47 generals, 0 SOSs, and 0 indicators.
Presolve time = 0.00 sec. (1.50 ticks)
Probing time = 0.00 sec. (1.02 ticks)
Tried aggregator 1 time.
Detecting symmetries...
MIP Presolve eliminated 3 rows and 3 columns.
Reduced MIP has 281 rows, 188 columns, and 877 nonzeros.
Reduced MIP has 141 binaries, 47 generals, 0 SOSs, and 0 indicators.
Presolve time = 0.00 sec. (0.82 ticks)
Probing time = 0.00 sec. (1.00 ticks)
Clique table members: 633.
MIP emphasis: heuristic.
MIP search method: dynamic search.
Parallel mode: deterministic, using up to 8 threads.
Root relaxation solution time = 0.01 sec. (1.11 ticks)

        Nodes                                         Cuts/
   Node  Left     Objective  IInf  Best Integer    Best Bound    ItCnt     Gap

*     0+    0                          610.0000       60.0000            90.16%
*     0     0      integral     0      250.0000      250.0000      131    0.00%
Elapsed time = 0.02 sec. (7.64 ticks, tree = 0.00 MB, solutions = 2)
Version identifier: 22.1.1.0 | 2022-11-28 | 9160aff4d
CPXPARAM_Threads                                 8
CPXPARAM_Emphasis_MIP                            5
CPXPARAM_TimeLimit                               3600
CPXPARAM_MIP_Tolerances_MIPGap                   0.029999999999999999
Tried aggregator 3 times.
MIP Presolve eliminated 620 rows and 362 columns.
MIP Presolve modified 3 coefficients.
Aggregator did 83 substitutions.
Reduced MIP has 384 rows, 254 columns, and 1222 nonzeros.
Reduced MIP has 200 binaries, 54 generals, 0 SOSs, and 0 indicators.
Presolve time = 0.01 sec. (2.21 ticks)
Probing time = 0.00 sec. (1.86 ticks)
Tried aggregator 1 time.
Detecting symmetries...
MIP Presolve eliminated 4 rows and 4 columns.
Reduced MIP has 380 rows, 250 columns, and 1210 nonzeros.
Reduced MIP has 196 binaries, 54 generals, 0 SOSs, and 0 indicators.
Presolve time = 0.00 sec. (1.15 ticks)
Probing time = 0.00 sec. (1.83 ticks)
Clique table members: 834.
MIP emphasis: heuristic.
MIP search method: dynamic search.
Parallel mode: deterministic, using up to 8 threads.
Root relaxation solution time = 0.02 sec. (1.52 ticks)

        Nodes                                         Cuts/
   Node  Left     Objective  IInf  Best Integer    Best Bound    ItCnt     Gap

*     0+    0                          620.0000       60.0000            90.32%
*     0     0      integral     0      270.0000      270.0000      163    0.00%
Elapsed time = 0.04 sec. (11.85 ticks, tree = 0.00 MB, solutions = 2)

Root node processing (before b&c):
  Real time             =    0.02 sec. (7.66 ticks)
Parallel b&c, 8 threads:
  Real time             =    0.00 sec. (0.00 ticks)
  Sync time (average)   =    0.00 sec.
  Wait time (average)   =    0.00 sec.
                          ------------
Total (root+branch&cut) =    0.02 sec. (7.66 ticks)

Root node processing (before b&c):
  Real time             =    0.02 sec. (6.09 ticks)
Parallel b&c, 8 threads:
  Real time             =    0.00 sec. (0.00 ticks)
  Sync time (average)   =    0.00 sec.
  Wait time (average)   =    0.00 sec.
                          ------------
Total (root+branch&cut) =    0.02 sec. (6.09 ticks)

Root node processing (before b&c):
  Real time             =    0.04 sec. (11.87 ticks)
Parallel b&c, 8 threads:
  Real time             =    0.00 sec. (0.00 ticks)
  Sync time (average)   =    0.00 sec.
  Wait time (average)   =    0.00 sec.
                          ------------
Total (root+branch&cut) =    0.04 sec. (11.87 ticks)

Root node processing (before b&c):
  Real time             =    0.01 sec. (1.34 ticks)
Parallel b&c, 8 threads:
  Real time             =    0.00 sec. (0.00 ticks)
  Sync time (average)   =    0.00 sec.
  Wait time (average)   =    0.00 sec.
                          ------------
Total (root+branch&cut) =    0.01 sec. (1.34 ticks)

Root node processing (before b&c):
  Real time             =    0.04 sec. (1.13 ticks)
Parallel b&c, 8 threads:
  Real time             =    0.00 sec. (0.00 ticks)
  Sync time (average)   =    0.00 sec.
  Wait time (average)   =    0.00 sec.
                          ------------
Total (root+branch&cut) =    0.04 sec. (1.13 ticks)
